18,4	0,0	11,1	10,6	0,0	0,0	0,0	0,0	0,0	16,8
16,1	7,0	0,0	18,2	19,5	0,0	0,0	17,6	0,0	0,0
0,0	0,0	17,4	0,0	15,4	14,4	0,0	0,0	11,0	0,0
13,3	0,0	6,4	0,0	0,0	0,0	8,9	0,0	0,0	0,0
0,0	18,4	0,0	15,7	10,8	0,0	0,0	16,5	0,0	0,0
0,0	15,9	15,6	0,0	14,0	10,4	0,0	0,0	13,7	0,0
0,0	17,0	0,0	12,4	0,0	0,0	19,1	0,0	0,0	12,1
7,9	0,0	7,3	0,0	0,0	0,0	0,0	0,0	0,0	15,1
0,0	9,0	0,0	11,0	6,1	0,0	0,0	16,7	0,0	0,0
0,0	0,0	7,1	0,0	0,0	16,6	15,3	0,0	0,0	18,7
									
2,8	3,0	4,5	3,1	2,9	3,0	5,0	2,7	3,8	3,0
